objective value:                           -6940.4039
x4                                                  1 	(obj:-336.449)
x6                                                  1 	(obj:-343.602)
x10                                                 1 	(obj:-102.541)
x30                                                 1 	(obj:-115.806)
x42                                                 1 	(obj:-610.706)
x60                                                 1 	(obj:-100.041)
x67                                                 1 	(obj:-445.079)
x80                                                 1 	(obj:-500.8)
x132                                                1 	(obj:-473.507)
x149                                                1 	(obj:-211.725)
x183                                                1 	(obj:-1003.69)
x218                                                1 	(obj:-81.6594)
x248                                                1 	(obj:-255.955)
x285                                                1 	(obj:-296.783)
x312                                                1 	(obj:-214.636)
x353                                                1 	(obj:-76.6455)
x357                                                1 	(obj:-250.84)
x398                                                1 	(obj:-268.669)
x402                                                1 	(obj:-215.117)
x426                                                1 	(obj:-114.167)
x447                                                1 	(obj:-291.618)
x491                                                1 	(obj:-630.368)
